317,142
444,443
639,448
681,376
909,332
399,18
385,452
593,527
977,452
1131,406
694,432
591,406
639,448
681,376
829,258
977,110
801,406
710,410
769,420
694,432
654,491
593,527
477,806
444,369
822,600
1006,457
977,452
593,285
317,142
